c nIsolatedPIs 6
c maxPI 14
p cnf 144 391
c gate 15 3 9 0
3 -15 0
9 -15 0
-3 -9 15 0
c gate 16 4 8 0
4 -16 0
8 -16 0
-4 -8 16 0
c gate 17 15 16 0
15 -17 0
16 -17 0
-15 -16 17 0
c gate 18 -15 -16 0
-15 -18 0
-16 -18 0
15 16 18 0
c gate 19 -17 -18 0
-17 -19 0
-18 -19 0
17 18 19 0
c gate 20 2 10 0
2 -20 0
10 -20 0
-2 -10 20 0
c gate 21 19 20 0
19 -21 0
20 -21 0
-19 -20 21 0
c gate 22 -17 -21 0
-17 -22 0
-21 -22 0
17 21 22 0
c gate 23 4 9 0
4 -23 0
9 -23 0
-4 -9 23 0
c gate 24 5 8 0
5 -24 0
8 -24 0
-5 -8 24 0
c gate 25 -23 -24 0
-23 -25 0
-24 -25 0
23 24 25 0
c gate 26 23 24 0
23 -26 0
24 -26 0
-23 -24 26 0
c gate 27 -25 -26 0
-25 -27 0
-26 -27 0
25 26 27 0
c gate 28 3 10 0
3 -28 0
10 -28 0
-3 -10 28 0
c gate 29 -27 28 0
-27 -29 0
28 -29 0
27 -28 29 0
c gate 30 27 -28 0
27 -30 0
-28 -30 0
-27 28 30 0
c gate 31 -29 -30 0
-29 -31 0
-30 -31 0
29 30 31 0
c gate 32 -22 -31 0
-22 -32 0
-31 -32 0
22 31 32 0
c gate 33 22 31 0
22 -33 0
31 -33 0
-22 -31 33 0
c gate 34 -32 -33 0
-32 -34 0
-33 -34 0
32 33 34 0
c gate 35 1 12 0
1 -35 0
12 -35 0
-1 -12 35 0
c gate 36 2 11 0
2 -36 0
11 -36 0
-2 -11 36 0
c gate 37 -35 -36 0
-35 -37 0
-36 -37 0
35 36 37 0
c gate 38 35 36 0
35 -38 0
36 -38 0
-35 -36 38 0
c gate 39 -37 -38 0
-37 -39 0
-38 -39 0
37 38 39 0
c gate 40 34 39 0
34 -40 0
39 -40 0
-34 -39 40 0
c gate 41 -32 -40 0
-32 -41 0
-40 -41 0
32 40 41 0
c gate 42 1 13 0
1 -42 0
13 -42 0
-1 -13 42 0
c gate 43 2 12 0
2 -43 0
12 -43 0
-2 -12 43 0
c gate 44 3 11 0
3 -44 0
11 -44 0
-3 -11 44 0
c gate 45 -43 -44 0
-43 -45 0
-44 -45 0
43 44 45 0
c gate 46 43 44 0
43 -46 0
44 -46 0
-43 -44 46 0
c gate 47 -45 -46 0
-45 -47 0
-46 -47 0
45 46 47 0
c gate 48 42 47 0
42 -48 0
47 -48 0
-42 -47 48 0
c gate 49 -42 -47 0
-42 -49 0
-47 -49 0
42 47 49 0
c gate 50 -48 -49 0
-48 -50 0
-49 -50 0
48 49 50 0
c gate 51 4 10 0
4 -51 0
10 -51 0
-4 -10 51 0
c gate 52 5 9 0
5 -52 0
9 -52 0
-5 -9 52 0
c gate 53 6 8 0
6 -53 0
8 -53 0
-6 -8 53 0
c gate 54 -52 -53 0
-52 -54 0
-53 -54 0
52 53 54 0
c gate 55 52 53 0
52 -55 0
53 -55 0
-52 -53 55 0
c gate 56 -54 -55 0
-54 -56 0
-55 -56 0
54 55 56 0
c gate 57 -51 -56 0
-51 -57 0
-56 -57 0
51 56 57 0
c gate 58 51 56 0
51 -58 0
56 -58 0
-51 -56 58 0
c gate 59 -57 -58 0
-57 -59 0
-58 -59 0
57 58 59 0
c gate 60 -25 -30 0
-25 -60 0
-30 -60 0
25 30 60 0
c gate 61 59 60 0
59 -61 0
60 -61 0
-59 -60 61 0
c gate 62 -59 -60 0
-59 -62 0
-60 -62 0
59 60 62 0
c gate 63 -61 -62 0
-61 -63 0
-62 -63 0
61 62 63 0
c gate 64 50 63 0
50 -64 0
63 -64 0
-50 -63 64 0
c gate 65 -50 -63 0
-50 -65 0
-63 -65 0
50 63 65 0
c gate 66 -64 -65 0
-64 -66 0
-65 -66 0
64 65 66 0
c gate 67 -41 66 0
-41 -67 0
66 -67 0
41 -66 67 0
c gate 68 41 -66 0
41 -68 0
-66 -68 0
-41 66 68 0
c gate 69 -67 -68 0
-67 -69 0
-68 -69 0
67 68 69 0
c gate 70 38 69 0
38 -70 0
69 -70 0
-38 -69 70 0
c gate 71 -67 -70 0
-67 -71 0
-70 -71 0
67 70 71 0
c gate 72 -61 -64 0
-61 -72 0
-64 -72 0
61 64 72 0
c gate 73 -55 -58 0
-55 -73 0
-58 -73 0
55 58 73 0
c gate 74 6 9 0
6 -74 0
9 -74 0
-6 -9 74 0
c gate 75 7 8 0
7 -75 0
8 -75 0
-7 -8 75 0
c gate 76 -74 -75 0
-74 -76 0
-75 -76 0
74 75 76 0
c gate 77 74 75 0
74 -77 0
75 -77 0
-74 -75 77 0
c gate 78 -76 -77 0
-76 -78 0
-77 -78 0
76 77 78 0
c gate 79 5 10 0
5 -79 0
10 -79 0
-5 -10 79 0
c gate 80 -78 79 0
-78 -80 0
79 -80 0
78 -79 80 0
c gate 81 78 -79 0
78 -81 0
-79 -81 0
-78 79 81 0
c gate 82 -80 -81 0
-80 -82 0
-81 -82 0
80 81 82 0
c gate 83 73 82 0
73 -83 0
82 -83 0
-73 -82 83 0
c gate 84 -73 -82 0
-73 -84 0
-82 -84 0
73 82 84 0
c gate 85 -83 -84 0
-83 -85 0
-84 -85 0
83 84 85 0
c gate 86 2 13 0
2 -86 0
13 -86 0
-2 -13 86 0
c gate 87 3 12 0
3 -87 0
12 -87 0
-3 -12 87 0
c gate 88 4 11 0
4 -88 0
11 -88 0
-4 -11 88 0
c gate 89 -87 -88 0
-87 -89 0
-88 -89 0
87 88 89 0
c gate 90 87 88 0
87 -90 0
88 -90 0
-87 -88 90 0
c gate 91 -89 -90 0
-89 -91 0
-90 -91 0
89 90 91 0
c gate 92 86 91 0
86 -92 0
91 -92 0
-86 -91 92 0
c gate 93 -86 -91 0
-86 -93 0
-91 -93 0
86 91 93 0
c gate 94 -92 -93 0
-92 -94 0
-93 -94 0
92 93 94 0
c gate 95 -85 94 0
-85 -95 0
94 -95 0
85 -94 95 0
c gate 96 85 -94 0
85 -96 0
-94 -96 0
-85 94 96 0
c gate 97 -95 -96 0
-95 -97 0
-96 -97 0
95 96 97 0
c gate 98 -72 -97 0
-72 -98 0
-97 -98 0
72 97 98 0
c gate 99 72 97 0
72 -99 0
97 -99 0
-72 -97 99 0
c gate 100 -98 -99 0
-98 -100 0
-99 -100 0
98 99 100 0
c gate 101 1 14 0
1 -101 0
14 -101 0
-1 -14 101 0
c gate 102 -46 -48 0
-46 -102 0
-48 -102 0
46 48 102 0
c gate 103 101 -102 0
101 -103 0
-102 -103 0
-101 102 103 0
c gate 104 -101 102 0
-101 -104 0
102 -104 0
101 -102 104 0
c gate 105 -103 -104 0
-103 -105 0
-104 -105 0
103 104 105 0
c gate 106 100 105 0
100 -106 0
105 -106 0
-100 -105 106 0
c gate 107 -100 -105 0
-100 -107 0
-105 -107 0
100 105 107 0
c gate 108 -106 -107 0
-106 -108 0
-107 -108 0
106 107 108 0
c gate 109 -71 108 0
-71 -109 0
108 -109 0
71 -108 109 0
c gate 110 71 -108 0
71 -110 0
-108 -110 0
-71 108 110 0
c gate 111 -109 -110 0
-109 -111 0
-110 -111 0
109 110 111 0
c gate 112 -38 -69 0
-38 -112 0
-69 -112 0
38 69 112 0
c gate 113 -70 -112 0
-70 -113 0
-112 -113 0
70 112 113 0
c gate 114 -19 -20 0
-19 -114 0
-20 -114 0
19 20 114 0
c gate 115 -21 -114 0
-21 -115 0
-114 -115 0
21 114 115 0
c gate 116 3 8 0
3 -116 0
8 -116 0
-3 -8 116 0
c gate 117 2 9 0
2 -117 0
9 -117 0
-2 -9 117 0
c gate 118 116 117 0
116 -118 0
117 -118 0
-116 -117 118 0
c gate 119 -116 -117 0
-116 -119 0
-117 -119 0
116 117 119 0
c gate 120 1 10 0
1 -120 0
10 -120 0
-1 -10 120 0
c gate 121 -119 120 0
-119 -121 0
120 -121 0
119 -120 121 0
c gate 122 -118 -121 0
-118 -122 0
-121 -122 0
118 121 122 0
c gate 123 115 -122 0
115 -123 0
-122 -123 0
-115 122 123 0
c gate 124 1 11 0
1 -124 0
11 -124 0
-1 -11 124 0
c gate 125 -115 122 0
-115 -125 0
122 -125 0
115 -122 125 0
c gate 126 -123 -125 0
-123 -126 0
-125 -126 0
123 125 126 0
c gate 127 124 126 0
124 -127 0
126 -127 0
-124 -126 127 0
c gate 128 -123 -127 0
-123 -128 0
-127 -128 0
123 127 128 0
c gate 129 -34 -39 0
-34 -129 0
-39 -129 0
34 39 129 0
c gate 130 -40 -129 0
-40 -130 0
-129 -130 0
40 129 130 0
c gate 131 -128 130 0
-128 -131 0
130 -131 0
128 -130 131 0
c gate 132 128 -130 0
128 -132 0
-130 -132 0
-128 130 132 0
c gate 133 -124 -126 0
-124 -133 0
-126 -133 0
124 126 133 0
c gate 134 -3 -10 0
-3 -134 0
-10 -134 0
3 10 134 0
c gate 135 -28 -134 0
-28 -135 0
-134 -135 0
28 134 135 0
c gate 136 1 8 0
1 -136 0
8 -136 0
-1 -8 136 0
c gate 137 117 136 0
117 -137 0
136 -137 0
-117 -136 137 0
c gate 138 -135 137 0
-135 -138 0
137 -138 0
135 -137 138 0
c gate 139 -127 138 0
-127 -139 0
138 -139 0
127 -138 139 0
c gate 140 -133 139 0
-133 -140 0
139 -140 0
133 -139 140 0
c gate 141 -132 140 0
-132 -141 0
140 -141 0
132 -140 141 0
c gate 142 -131 141 0
-131 -142 0
141 -142 0
131 -141 142 0
c gate 143 113 142 0
113 -143 0
142 -143 0
-113 -142 143 0
c gate 144 111 143 0
111 -144 0
143 -144 0
-111 -143 144 0
c PO
144 0
